10
2 1 683
3 1 930
3 2 406
4 1 321
4 2 571
4 3 848
5 1 35
5 2 767
5 3 895
5 4 334
6 1 29
6 2 817
6 3 876
6 4 623
6 5 964
7 1 19
7 2 148
7 3 527
7 4 491
7 5 707
7 6 306
8 1 699
8 2 847
8 3 604
8 4 811
8 5 507
8 6 863
8 7 691
9 1 85
9 2 407
9 3 415
9 4 357
9 5 857
9 6 926
9 7 491
9 8 64
